NAME: test86
TYPE: TSP
DIMENSION: 15
EDGE_WEIGHT_TYPE: EUC_2D
NODE_COORD_SECTION
1 22.075588680881808 23.986303563905608
2 63.2353980790455 75.36296533059236
3 55.38421324401066 84.57031731492376
4 98.26476124757046 59.279871006792625
5 53.45685736932483 65.42428282079823
6 81.7348641555952 71.60728963110685
7 84.5693706915323 56.98485411088004
8 84.59454087037767 83.55661468683316
9 59.13652987478384 98.23772515500565
10 82.42523585002078 73.57594788255727
11 71.6118502387068 40.71300707807728
12 64.18237424146601 62.26633739642461
13 71.72866373440677 3.5853039640131312
14 23.079092946901426 55.59947181976713
15 98.49002227467682 48.47706085025274
EOF
